objective value:                               396263
t_x1                                                1 	(obj:3304)
t_x26                                               1 	(obj:3304)
t_x27                                               1 	(obj:3304)
t_x29                                               1 	(obj:3304)
t_x33                                               1 	(obj:3304)
t_x34                                               1 	(obj:3304)
t_x38                                               1 	(obj:3304)
t_x86                                               1 	(obj:3304)
t_x95                                               1 	(obj:3304)
t_x101                                              1 	(obj:3304)
t_x103                                              1 	(obj:3304)
t_x133                                              1 	(obj:3304)
t_x141                                              1 	(obj:3304)
t_x150                                              1 	(obj:3304)
t_x152                                              1 	(obj:3304)
t_x159                                              1 	(obj:3304)
t_x161                                              1 	(obj:3304)
t_x162                                              1 	(obj:3304)
t_x164                                              1 	(obj:3304)
t_x171                                              1 	(obj:3304)
t_x174                                              1 	(obj:3304)
t_x179                                              1 	(obj:3304)
t_x181                                              1 	(obj:3304)
t_x184                                              1 	(obj:3304)
t_x190                                              1 	(obj:3304)
t_x191                                              1 	(obj:3304)
t_x195                                              1 	(obj:3304)
t_x196                                              1 	(obj:3304)
t_x200                                              1 	(obj:3304)
t_x204                                              1 	(obj:3304)
t_x239                                              1 	(obj:3304)
t_x249                                              1 	(obj:3304)
t_x267                                              1 	(obj:3304)
t_x278                                              1 	(obj:3304)
t_x281                                              1 	(obj:3304)
t_x285                                              1 	(obj:3304)
t_x287                                              1 	(obj:3304)
t_x290                                              1 	(obj:3304)
t_x296                                              1 	(obj:3304)
t_x305                                              1 	(obj:3304)
t_x309                                              1 	(obj:3304)
t_x312                                              1 	(obj:3304)
t_x314                                              1 	(obj:3304)
t_x317                                              1 	(obj:3304)
t_x318                                              1 	(obj:3304)
t_x321                                              1 	(obj:3304)
t_x322                                              1 	(obj:3304)
t_x323                                              1 	(obj:3304)
t_x326                                              1 	(obj:3304)
t_x331                                              1 	(obj:3304)
t_x334                                              1 	(obj:3304)
t_x337                                              1 	(obj:3304)
t_x340                                              1 	(obj:3304)
t_x343                                              1 	(obj:3304)
t_x364                                              1 	(obj:3304)
t_x371                                              1 	(obj:3304)
t_x374                                              1 	(obj:3304)
t_x375                                              1 	(obj:3304)
t_x380                                              1 	(obj:3304)
t_x384                                              1 	(obj:3304)
t_x385                                              1 	(obj:3304)
t_x389                                              1 	(obj:3304)
t_x390                                              1 	(obj:3304)
t_x395                                              1 	(obj:3304)
t_x405                                              1 	(obj:3304)
t_x416                                              1 	(obj:3304)
t_x422                                              1 	(obj:3304)
t_x426                                              1 	(obj:3304)
t_x431                                              1 	(obj:3304)
t_x432                                              1 	(obj:3304)
t_x436                                              1 	(obj:3304)
t_x440                                              1 	(obj:3304)
t_x441                                              1 	(obj:3304)
t_x449                                              1 	(obj:3304)
t_x450                                              1 	(obj:3304)
t_x451                                              1 	(obj:3304)
t_x458                                              1 	(obj:3304)
t_x460                                              1 	(obj:3304)
t_x467                                              1 	(obj:3304)
t_x472                                              1 	(obj:3304)
t_x485                                              1 	(obj:3304)
t_x494                                              1 	(obj:3304)
t_x497                                              1 	(obj:3304)
t_x498                                              1 	(obj:3304)
t_x506                                              1 	(obj:3304)
t_x507                                              1 	(obj:3304)
t_x517                                              1 	(obj:3304)
t_x527                                              1 	(obj:3304)
t_x528                                              1 	(obj:3304)
t_x535                                              1 	(obj:3304)
t_x539                                              1 	(obj:3304)
t_x545                                              1 	(obj:3304)
t_x549                                              1 	(obj:3304)
t_x555                                              1 	(obj:3304)
t_x559                                              1 	(obj:3304)
t_x565                                              1 	(obj:3304)
t_x569                                              1 	(obj:3304)
t_x597                                              1 	(obj:3304)
t_x604                                              1 	(obj:3304)
t_x610                                              1 	(obj:3304)
t_x615                                              1 	(obj:3304)
t_x616                                              1 	(obj:3304)
t_x621                                              1 	(obj:3304)
t_x639                                              1 	(obj:3304)
t_x640                                              1 	(obj:3304)
t_x641                                              1 	(obj:3304)
t_x650                                              1 	(obj:3304)
t_x651                                              1 	(obj:3304)
t_x652                                              1 	(obj:3304)
t_x653                                              1 	(obj:3304)
t_x654                                              1 	(obj:3304)
t_x655                                              1 	(obj:3304)
t_x656                                              1 	(obj:3304)
t_x2541                                             1 	(obj:700)
t_x8471                                             1 	(obj:664)
t_x9116                                             1 	(obj:709)
t_x9334                                             1 	(obj:699)
t_x9518                                             1 	(obj:709)
t_x10555                                            1 	(obj:704)
t_x11226                                            1 	(obj:694)
t_x17601                                            1 	(obj:675)
t_x20307                                            1 	(obj:645)
t_x21014                            0.999999999999999 	(obj:630)
t_x22918                                            1 	(obj:630)
t_x23101                                            1 	(obj:630)
t_x25016                                            1 	(obj:657)
t_x25411                                            1 	(obj:659)
t_x26767                                            1 	(obj:653)
t_x27063                                            1 	(obj:650)
t_x28995                                            1 	(obj:694)
t_x29047                                            1 	(obj:672)
t_x29524                                            1 	(obj:654)
t_x30376                                            1 	(obj:642)
t_x35409                                            1 	(obj:695)
t_x36393                            0.999999999999998 	(obj:696)
t_x41542                                            1 	(obj:665)
t_x41766                                            1 	(obj:676)
t_x44552                                            1 	(obj:691)
t_x50499                                            1 	(obj:648)
t_x52093                                            1 	(obj:654)
t_x52562                                            1 	(obj:696)
t_x56667                                            1 	(obj:690)
t_x57250                                            1 	(obj:696)
t_x57288                                            1 	(obj:672)
t_x58963                                            1 	(obj:688)
t_x62167                                            1 	(obj:703)
t_x67294                                            1 	(obj:671)
